p cnf 513 460
2 3 4 0
1 3 5 0
1 2 6 0
5 6 7 0
4 6 8 0
4 5 9 0
1 8 9 0
2 7 9 0
3 7 8 0
1 4 7 0
2 5 8 0
3 6 9 0
11 12 13 0
10 12 14 0
10 11 15 0
14 15 16 0
13 15 17 0
13 14 18 0
10 17 18 0
11 16 18 0
12 16 17 0
10 13 16 0
11 14 17 0
12 15 18 0
20 21 22 0
19 21 23 0
19 20 24 0
23 24 25 0
22 24 26 0
22 23 27 0
19 26 27 0
20 25 27 0
21 25 26 0
19 22 25 0
20 23 26 0
21 24 27 0
1 10 19 0
1 11 24 0
1 12 23 0
1 13 25 0
1 14 21 0
1 15 20 0
1 16 22 0
1 17 27 0
1 18 26 0
2 10 24 0
2 11 20 0
2 12 22 0
2 13 21 0
2 14 26 0
2 15 19 0
2 16 27 0
2 17 23 0
2 18 25 0
3 10 23 0
3 11 22 0
3 12 21 0
3 13 20 0
3 14 19 0
3 15 27 0
3 16 26 0
3 17 25 0
3 18 24 0
4 10 25 0
4 11 21 0
4 12 20 0
4 13 22 0
4 14 27 0
4 15 26 0
4 16 19 0
4 17 24 0
4 18 23 0
5 10 21 0
5 11 26 0
5 12 19 0
5 13 27 0
5 14 23 0
5 15 25 0
5 16 24 0
5 17 20 0
5 18 22 0
6 10 20 0
6 11 19 0
6 12 27 0
6 13 26 0
6 14 25 0
6 15 24 0
6 16 23 0
6 17 22 0
6 18 21 0
7 10 22 0
7 11 27 0
7 12 26 0
7 13 19 0
7 14 24 0
7 15 23 0
7 16 25 0
7 17 21 0
7 18 20 0
8 10 27 0
8 11 23 0
8 12 25 0
8 13 24 0
8 14 20 0
8 15 22 0
8 16 21 0
8 17 26 0
8 18 19 0
9 10 26 0
9 11 25 0
9 12 24 0
9 13 23 0
9 14 22 0
9 15 21 0
9 16 20 0
9 17 19 0
9 18 27 0
-28 -1 0
-46 -2 0
-46 28 0
-47 -2 28 0
-64 -3 0
-64 46 0
-65 -3 46 0
-65 47 0
-66 -3 47 0
-82 -4 0
-82 64 0
-83 -4 64 0
-83 65 0
-84 -4 65 0
-84 66 0
-85 -4 66 0
-100 -5 0
-100 82 0
-101 -5 82 0
-101 83 0
-102 -5 83 0
-102 84 0
-103 -5 84 0
-103 85 0
-104 -5 85 0
-118 -6 0
-118 100 0
-119 -6 100 0
-119 101 0
-120 -6 101 0
-120 102 0
-121 -6 102 0
-121 103 0
-122 -6 103 0
-122 104 0
-123 -6 104 0
-136 -7 0
-136 118 0
-137 -7 118 0
-137 119 0
-138 -7 119 0
-138 120 0
-139 -7 120 0
-139 121 0
-140 -7 121 0
-140 122 0
-141 -7 122 0
-141 123 0
-142 -7 123 0
-154 -8 0
-154 136 0
-155 -8 136 0
-155 137 0
-156 -8 137 0
-156 138 0
-157 -8 138 0
-157 139 0
-158 -8 139 0
-158 140 0
-159 -8 140 0
-159 141 0
-160 -8 141 0
-160 142 0
-161 -8 142 0
-172 -9 0
-172 154 0
-173 -9 154 0
-173 155 0
-174 -9 155 0
-174 156 0
-175 -9 156 0
-175 157 0
-176 -9 157 0
-176 158 0
-177 -9 158 0
-177 159 0
-178 -9 159 0
-178 160 0
-179 -9 160 0
-179 161 0
-180 -9 161 0
-190 -10 0
-190 172 0
-191 -10 172 0
-191 173 0
-192 -10 173 0
-192 174 0
-193 -10 174 0
-193 175 0
-194 -10 175 0
-194 176 0
-195 -10 176 0
-195 177 0
-196 -10 177 0
-196 178 0
-197 -10 178 0
-197 179 0
-198 -10 179 0
-198 180 0
-199 -10 180 0
-209 -11 190 0
-209 191 0
-210 -11 191 0
-210 192 0
-211 -11 192 0
-211 193 0
-212 -11 193 0
-212 194 0
-213 -11 194 0
-213 195 0
-214 -11 195 0
-214 196 0
-215 -11 196 0
-215 197 0
-216 -11 197 0
-216 198 0
-217 -11 198 0
-217 199 0
-218 -11 199 0
-228 -12 209 0
-228 210 0
-229 -12 210 0
-229 211 0
-230 -12 211 0
-230 212 0
-231 -12 212 0
-231 213 0
-232 -12 213 0
-232 214 0
-233 -12 214 0
-233 215 0
-234 -12 215 0
-234 216 0
-235 -12 216 0
-235 217 0
-236 -12 217 0
-236 218 0
-237 -12 218 0
-247 -13 228 0
-247 229 0
-248 -13 229 0
-248 230 0
-249 -13 230 0
-249 231 0
-250 -13 231 0
-250 232 0
-251 -13 232 0
-251 233 0
-252 -13 233 0
-252 234 0
-253 -13 234 0
-253 235 0
-254 -13 235 0
-254 236 0
-255 -13 236 0
-255 237 0
-256 -13 237 0
-266 -14 247 0
-266 248 0
-267 -14 248 0
-267 249 0
-268 -14 249 0
-268 250 0
-269 -14 250 0
-269 251 0
-270 -14 251 0
-270 252 0
-271 -14 252 0
-271 253 0
-272 -14 253 0
-272 254 0
-273 -14 254 0
-273 255 0
-274 -14 255 0
-274 256 0
-275 -14 256 0
-285 -15 266 0
-285 267 0
-286 -15 267 0
-286 268 0
-287 -15 268 0
-287 269 0
-288 -15 269 0
-288 270 0
-289 -15 270 0
-289 271 0
-290 -15 271 0
-290 272 0
-291 -15 272 0
-291 273 0
-292 -15 273 0
-292 274 0
-293 -15 274 0
-293 275 0
-294 -15 275 0
-304 -16 285 0
-304 286 0
-305 -16 286 0
-305 287 0
-306 -16 287 0
-306 288 0
-307 -16 288 0
-307 289 0
-308 -16 289 0
-308 290 0
-309 -16 290 0
-309 291 0
-310 -16 291 0
-310 292 0
-311 -16 292 0
-311 293 0
-312 -16 293 0
-312 294 0
-313 -16 294 0
-323 -17 304 0
-323 305 0
-324 -17 305 0
-324 306 0
-325 -17 306 0
-325 307 0
-326 -17 307 0
-326 308 0
-327 -17 308 0
-327 309 0
-328 -17 309 0
-328 310 0
-329 -17 310 0
-329 311 0
-330 -17 311 0
-330 312 0
-331 -17 312 0
-331 313 0
-332 -17 313 0
-342 -18 323 0
-342 324 0
-343 -18 324 0
-343 325 0
-344 -18 325 0
-344 326 0
-345 -18 326 0
-345 327 0
-346 -18 327 0
-346 328 0
-347 -18 328 0
-347 329 0
-348 -18 329 0
-348 330 0
-349 -18 330 0
-349 331 0
-350 -18 331 0
-350 332 0
-351 -18 332 0
-361 -19 342 0
-361 343 0
-362 -19 343 0
-362 344 0
-363 -19 344 0
-363 345 0
-364 -19 345 0
-364 346 0
-365 -19 346 0
-365 347 0
-366 -19 347 0
-366 348 0
-367 -19 348 0
-367 349 0
-368 -19 349 0
-368 350 0
-369 -19 350 0
-369 351 0
-380 -20 361 0
-380 362 0
-381 -20 362 0
-381 363 0
-382 -20 363 0
-382 364 0
-383 -20 364 0
-383 365 0
-384 -20 365 0
-384 366 0
-385 -20 366 0
-385 367 0
-386 -20 367 0
-386 368 0
-387 -20 368 0
-387 369 0
-399 -21 380 0
-399 381 0
-400 -21 381 0
-400 382 0
-401 -21 382 0
-401 383 0
-402 -21 383 0
-402 384 0
-403 -21 384 0
-403 385 0
-404 -21 385 0
-404 386 0
-405 -21 386 0
-405 387 0
-418 -22 399 0
-418 400 0
-419 -22 400 0
-419 401 0
-420 -22 401 0
-420 402 0
-421 -22 402 0
-421 403 0
-422 -22 403 0
-422 404 0
-423 -22 404 0
-423 405 0
-437 -23 418 0
-437 419 0
-438 -23 419 0
-438 420 0
-439 -23 420 0
-439 421 0
-440 -23 421 0
-440 422 0
-441 -23 422 0
-441 423 0
-456 -24 437 0
-456 438 0
-457 -24 438 0
-457 439 0
-458 -24 439 0
-458 440 0
-459 -24 440 0
-459 441 0
-475 -25 456 0
-475 457 0
-476 -25 457 0
-476 458 0
-477 -25 458 0
-477 459 0
-494 -26 475 0
-494 476 0
-495 -26 476 0
-495 477 0
-513 -27 494 0
-513 495 0
513 0
